*SENSE:Minimize
NAME          MODEL
ROWS
 N  OBJ
 L  C0000000
 L  C0000001
 G  C0000002
 L  C0000003
 L  C0000004
 G  C0000005
 G  C0000006
 G  C0000007
 G  C0000008
COLUMNS
    MARK      'MARKER'                 'INTORG'
    X0000000  C0000001   1.000000000000e+00
    X0000000  C0000002   1.000000000000e+00
    X0000000  C0000003   8.400000000000e+01
    X0000000  C0000004   9.480000000000e+03
    X0000000  C0000005   9.480000000000e+03
    X0000000  C0000006   1.000000000000e+00
    MARK      'MARKER'                 'INTEND'
    MARK      'MARKER'                 'INTORG'
    X0000001  C0000001  -1.000000000000e+00
    X0000001  C0000002  -1.000000000000e+00
    X0000001  C0000003  -8.300000000000e+01
    X0000001  C0000004  -9.479000000000e+03
    X0000001  C0000005  -9.479000000000e+03
    X0000001  C0000007   1.000000000000e+00
    MARK      'MARKER'                 'INTEND'
    MARK      'MARKER'                 'INTORG'
    X0000002  C0000004   1.000000000000e+00
    X0000002  C0000005   1.000000000000e+00
    X0000002  C0000008   1.000000000000e+00
    MARK      'MARKER'                 'INTEND'
    MARK      'MARKER'                 'INTORG'
    X0000003  C0000000   1.000000000000e+00
    X0000003  C0000001  -1.000000000000e+00
    X0000003  C0000002   1.000000000000e+00
    X0000003  C0000003  -1.000000000000e+00
    X0000003  C0000004  -1.000000000000e+00
    X0000003  C0000005   1.000000000000e+00
    X0000003  OBJ        1.000000000000e+00
    MARK      'MARKER'                 'INTEND'
RHS
    RHS       C0000000   0.000000000000e+00
    RHS       C0000001  -2.000000000000e+00
    RHS       C0000002  -2.000000000000e+00
    RHS       C0000003  -1.680000000000e+02
    RHS       C0000004  -1.895700000000e+04
    RHS       C0000005  -1.895700000000e+04
    RHS       C0000006  -2.147483648000e+09
    RHS       C0000007  -2.147483648000e+09
    RHS       C0000008  -2.147483648000e+09
BOUNDS
 LO BND       X0000000  -1.330771839518e+09
 UP BND       X0000000   4.195065239920e+08
 LO BND       X0000001  -6.318872827430e+08
 UP BND       X0000001   8.274813655089e+08
 LO BND       X0000002  -1.444893500157e+09
 UP BND       X0000002   1.528854223110e+09
 FR BND       X0000003
ENDATA
